SYSTEM=N_doped Graphene

ISMEAR=-5
PREC = Accurate
SIGMA=0.1
ENCUT=600
LREAL=FALSE
LASPH=.FALSE.
NELMIN=5
NELM=100
EDIFF = 1E-6

ISYM = 0

#vdw
IVDW=12

#Spin
ISPIN=2
MAGMOM = 2*1 70*0 

#Geometry one cycle on previous run, then 3 cyclesn
#NSW=2000
#EDIFFG=-0.01
#IBRION=2
#ISIF=2

#Projections and DOS
NEDOS = 5000
#EMIN = -7
#EMAX = 1
LORBIT=11
#NBANDS=360

#Output
LWAVE=.FALSE.
LCHARG=.TRUE. 


NCORE=24

IDIPOL = 3
LDIPOL = .TRUE.


